c generated by sgen
p cnf 93 196
-2 -3 -4 0
-1 -3 -4 0
-1 -2 -4 0
-1 -2 -3 0
-6 -7 -8 0
-5 -7 -8 0
-5 -6 -8 0
-5 -6 -7 0
-10 -11 -12 0
-9 -11 -12 0
-9 -10 -12 0
-9 -10 -11 0
-14 -15 -16 0
-13 -15 -16 0
-13 -14 -16 0
-13 -14 -15 0
-18 -19 -20 0
-17 -19 -20 0
-17 -18 -20 0
-17 -18 -19 0
-22 -23 -24 0
-21 -23 -24 0
-21 -22 -24 0
-21 -22 -23 0
-26 -27 -28 0
-25 -27 -28 0
-25 -26 -28 0
-25 -26 -27 0
-30 -31 -32 0
-29 -31 -32 0
-29 -30 -32 0
-29 -30 -31 0
-34 -35 -36 0
-33 -35 -36 0
-33 -34 -36 0
-33 -34 -35 0
-38 -39 -40 0
-37 -39 -40 0
-37 -38 -40 0
-37 -38 -39 0
-42 -43 -44 0
-41 -43 -44 0
-41 -42 -44 0
-41 -42 -43 0
-46 -47 -48 0
-45 -47 -48 0
-45 -46 -48 0
-45 -46 -47 0
-50 -51 -52 0
-49 -51 -52 0
-49 -50 -52 0
-49 -50 -51 0
-54 -55 -56 0
-53 -55 -56 0
-53 -54 -56 0
-53 -54 -55 0
-58 -59 -60 0
-57 -59 -60 0
-57 -58 -60 0
-57 -58 -59 0
-62 -63 -64 0
-61 -63 -64 0
-61 -62 -64 0
-61 -62 -63 0
-66 -67 -68 0
-65 -67 -68 0
-65 -66 -68 0
-65 -66 -67 0
-70 -71 -72 0
-69 -71 -72 0
-69 -70 -72 0
-69 -70 -71 0
-74 -75 -76 0
-73 -75 -76 0
-73 -74 -76 0
-73 -74 -75 0
-78 -79 -80 0
-77 -79 -80 0
-77 -78 -80 0
-77 -78 -79 0
-82 -83 -84 0
-81 -83 -84 0
-81 -82 -84 0
-81 -82 -83 0
-86 -87 -88 0
-85 -87 -88 0
-85 -86 -88 0
-85 -86 -87 0
-89 -90 -91 0
-89 -90 -92 0
-89 -90 -93 0
-89 -91 -92 0
-89 -91 -93 0
-89 -92 -93 0
-90 -91 -92 0
-90 -91 -93 0
-90 -92 -93 0
-91 -92 -93 0
34 24 91 0
29 24 91 0
29 34 91 0
29 34 24 0
40 25 13 0
30 25 13 0
30 40 13 0
30 40 25 0
57 28 2 0
20 28 2 0
20 57 2 0
20 57 28 0
37 90 45 0
8 90 45 0
8 37 45 0
8 37 90 0
44 18 51 0
33 18 51 0
33 44 51 0
33 44 18 0
46 74 58 0
42 74 58 0
42 46 58 0
42 46 74 0
61 14 70 0
19 14 70 0
19 61 70 0
19 61 14 0
88 77 75 0
32 77 75 0
32 88 75 0
32 88 77 0
93 73 56 0
83 73 56 0
83 93 56 0
83 93 73 0
38 10 60 0
65 10 60 0
65 38 60 0
65 38 10 0
78 39 54 0
36 39 54 0
36 78 54 0
36 78 39 0
17 9 81 0
47 9 81 0
47 17 81 0
47 17 9 0
80 3 22 0
7 3 22 0
7 80 22 0
7 80 3 0
55 21 64 0
59 21 64 0
59 55 64 0
59 55 21 0
62 35 27 0
67 35 27 0
67 62 27 0
67 62 35 0
79 48 15 0
53 48 15 0
53 79 15 0
53 79 48 0
63 49 85 0
89 49 85 0
89 63 85 0
89 63 49 0
12 50 69 0
23 50 69 0
23 12 69 0
23 12 50 0
66 1 92 0
41 1 92 0
41 66 92 0
41 66 1 0
16 11 43 0
87 11 43 0
87 16 43 0
87 16 11 0
68 72 5 0
76 72 5 0
76 68 5 0
76 68 72 0
26 82 86 0
71 82 86 0
71 26 86 0
71 26 82 0
84 31 52 0
84 31 4 0
84 31 6 0
84 52 4 0
84 52 6 0
84 4 6 0
31 52 4 0
31 52 6 0
31 4 6 0
52 4 6 0
